lbl,CUST NO.,READY TIME,XCOORD.,YCOORD.,DEMAND,DUE DATE,SERVICE TIME
7,101,35,35,76,10,275,90
7,119,57,28,74,20,391,90
7,144,90,32,77,20,167,90
7,166,226,27,77,10,407,90
7,35,338,25,80,20,483,90
7,126,457,28,78,10,552,90
7,71,516,30,79,20,676,90
7,9,660,32,79,20,716,90
7,1,672,33,78,20,887,90
7,99,811,34,79,10,931,90
7,53,880,34,82,10,1049,90
